PARAMETER_FILE = even/LKH_uncomplete_graph/x5/de/par/random124.par
PROBLEM_FILE = even/LKH_uncomplete_graph/x5/de/mat/random124.tsp
Successes/Runs = 0/10
Cost.min = 851, Cost.avg = 851.00, Cost.max = 851
Gap.min = 0.0000%, Gap.avg = 0.0000%, Gap.max = 0.0000%
Trials.min = 1000, Trials.avg = 1000.0, Trials.max = 1000
Time.min = 0.19 sec., Time.avg = 0.36 sec., Time.max = 0.71 sec.
Time.total = 3.69 sec.
请按任意键继续. . . 
